<instance format="XCSP3" type="CSP">
  <variables>
    <array id="x" size="[42]"> 0 1 </array>
  </variables>
  <constraints>
    <group>
      <extension>
        <list> %... </list>
        <conflicts> (0,0,0,0,0,0) </conflicts>
      </extension>
      <args> x[5] x[4] x[3] x[2] x[1] x[0] </args>
      <args> x[11] x[10] x[9] x[8] x[7] x[6] </args>
      <args> x[17] x[16] x[15] x[14] x[13] x[12] </args>
      <args> x[23] x[22] x[21] x[20] x[19] x[18] </args>
      <args> x[29] x[28] x[27] x[26] x[25] x[24] </args>
      <args> x[35] x[34] x[33] x[32] x[31] x[30] </args>
      <args> x[41] x[40] x[39] x[38] x[37] x[36] </args>
    </group>
    <group>
      <extension>
        <list> %0 %1 </list>
        <conflicts> (1,1) </conflicts>
      </extension>
      <args> x[0] x[6] </args>
      <args> x[0] x[12] </args>
      <args> x[0] x[18] </args>
      <args> x[0] x[24] </args>
      <args> x[0] x[30] </args>
      <args> x[0] x[36] </args>
      <args> x[6] x[12] </args>
      <args> x[6] x[18] </args>
      <args> x[6] x[24] </args>
      <args> x[6] x[30] </args>
      <args> x[6] x[36] </args>
      <args> x[12] x[18] </args>
      <args> x[12] x[24] </args>
      <args> x[12] x[30] </args>
      <args> x[12] x[36] </args>
      <args> x[18] x[24] </args>
      <args> x[18] x[30] </args>
      <args> x[18] x[36] </args>
      <args> x[24] x[30] </args>
      <args> x[24] x[36] </args>
      <args> x[30] x[36] </args>
      <args> x[1] x[7] </args>
      <args> x[1] x[13] </args>
      <args> x[1] x[19] </args>
      <args> x[1] x[25] </args>
      <args> x[1] x[31] </args>
      <args> x[1] x[37] </args>
      <args> x[7] x[13] </args>
      <args> x[7] x[19] </args>
      <args> x[7] x[25] </args>
      <args> x[7] x[31] </args>
      <args> x[7] x[37] </args>
      <args> x[13] x[19] </args>
      <args> x[13] x[25] </args>
      <args> x[13] x[31] </args>
      <args> x[13] x[37] </args>
      <args> x[19] x[25] </args>
      <args> x[19] x[31] </args>
      <args> x[19] x[37] </args>
      <args> x[25] x[31] </args>
      <args> x[25] x[37] </args>
      <args> x[31] x[37] </args>
      <args> x[2] x[8] </args>
      <args> x[2] x[14] </args>
      <args> x[2] x[20] </args>
      <args> x[2] x[26] </args>
      <args> x[2] x[32] </args>
      <args> x[2] x[38] </args>
      <args> x[8] x[14] </args>
      <args> x[8] x[20] </args>
      <args> x[8] x[26] </args>
      <args> x[8] x[32] </args>
      <args> x[8] x[38] </args>
      <args> x[14] x[20] </args>
      <args> x[14] x[26] </args>
      <args> x[14] x[32] </args>
      <args> x[14] x[38] </args>
      <args> x[20] x[26] </args>
      <args> x[20] x[32] </args>
      <args> x[20] x[38] </args>
      <args> x[26] x[32] </args>
      <args> x[26] x[38] </args>
      <args> x[32] x[38] </args>
      <args> x[3] x[9] </args>
      <args> x[3] x[15] </args>
      <args> x[3] x[21] </args>
      <args> x[3] x[27] </args>
      <args> x[3] x[33] </args>
      <args> x[3] x[39] </args>
      <args> x[9] x[15] </args>
      <args> x[9] x[21] </args>
      <args> x[9] x[27] </args>
      <args> x[9] x[33] </args>
      <args> x[9] x[39] </args>
      <args> x[15] x[21] </args>
      <args> x[15] x[27] </args>
      <args> x[15] x[33] </args>
      <args> x[15] x[39] </args>
      <args> x[21] x[27] </args>
      <args> x[21] x[33] </args>
      <args> x[21] x[39] </args>
      <args> x[27] x[33] </args>
      <args> x[27] x[39] </args>
      <args> x[33] x[39] </args>
      <args> x[4] x[10] </args>
      <args> x[4] x[16] </args>
      <args> x[4] x[22] </args>
      <args> x[4] x[28] </args>
      <args> x[4] x[34] </args>
      <args> x[4] x[40] </args>
      <args> x[10] x[16] </args>
      <args> x[10] x[22] </args>
      <args> x[10] x[28] </args>
      <args> x[10] x[34] </args>
      <args> x[10] x[40] </args>
      <args> x[16] x[22] </args>
      <args> x[16] x[28] </args>
      <args> x[16] x[34] </args>
      <args> x[16] x[40] </args>
      <args> x[22] x[28] </args>
      <args> x[22] x[34] </args>
      <args> x[22] x[40] </args>
      <args> x[28] x[34] </args>
      <args> x[28] x[40] </args>
      <args> x[34] x[40] </args>
      <args> x[5] x[11] </args>
      <args> x[5] x[17] </args>
      <args> x[5] x[23] </args>
      <args> x[5] x[29] </args>
      <args> x[5] x[35] </args>
      <args> x[5] x[41] </args>
      <args> x[11] x[17] </args>
      <args> x[11] x[23] </args>
      <args> x[11] x[29] </args>
      <args> x[11] x[35] </args>
      <args> x[11] x[41] </args>
      <args> x[17] x[23] </args>
      <args> x[17] x[29] </args>
      <args> x[17] x[35] </args>
      <args> x[17] x[41] </args>
      <args> x[23] x[29] </args>
      <args> x[23] x[35] </args>
      <args> x[23] x[41] </args>
      <args> x[29] x[35] </args>
      <args> x[29] x[41] </args>
      <args> x[35] x[41] </args>
    </group>
  </constraints>
</instance>
